<number of tasks>
20

<cycle time>
1000

<order strength>
0,526


<task times>
1 91
2 185
3 195
4 134
5 165
6 207
7 159
8 45
9 26
10 110
11 176
12 83
13 129
14 169
15 123
16 28
17 223
18 262
19 222
20 176

<precedence relations>
1,4
2,5
3,6
3,7
3,8
4,9
5,10
6,11
7,12
8,12
9,13
10,14
11,14
12,14
13,15
14,15
14,16
14,17
15,19
16,18
16,19
16,20
17,19
17,20

<end>
